variable        T equal 300.0
variable        p equal   1.0
variable        Tdamp equal  100.0
variable        pdamp equal 1000.0
variable	new string "20k_infiniband_gpu"

units           real
neigh_modify    delay 0 every 1 check yes

atom_style      full
bond_style      harmonic
angle_style     charmm
dihedral_style  charmm
improper_style  harmonic

pair_style      lj/charmm/coul/long 10 12
pair_modify     mix arithmetic
kspace_style    pppm 1e-4

read_data       benchmark.data

special_bonds   charmm
fix             1 all shake 1.0e-6 500 0 m 1.0 b 47 a 106
fix             2 all npt temp $T $T ${Tdamp} iso $p $p ${pdamp}

thermo          10000
thermo_style    multi
thermo_modify   flush yes
timestep        2.0

restart         10000 benchmark.rst
dump            1 all dcd 25000 benchmark.dcd
dump_modify     1 unwrap yes

run             50000
